smt_solver/sw_db/truth_tables_input_2/truth_table_11
001
101
010
111
